n=8;
hearts=1;
clubs=29;
spades=54;
diamonds=5;
blocked=9;
m=array2d(1..n, 1..n,[
	_,_,_,_,_,_,_,_,
	5,_,_,_,_,2,_,_,
	_,_,_,_,5,_,_,_,
	_,_,_,_,5,_,_,_,
	_,3,2,_,1,5,_,_,
	_,_,5,2,_,_,5,5,
	_,_,_,_,_,_,_,5,
	_,_,_,_,_,_,_,5
]);
